c WARNING: for repeatability, setting FPU to use double precision
d VARIABLES            28412        
d CONSTRAINTS          104011       
c ============================[ Problem Statistics ]=============================
c |                                                                             |
c |  Number of variables:         28412                                         |
c |  Number of clauses:          104011                                         |
c |  Parse time:                   0.02 s                                       |
c |                                                                             |
c ============================[ Search Statistics ]==============================
c | Conflicts |          ORIGINAL         |          LEARNT          | Progress |
c |           |    Vars  Clauses Literals |    Limit  Clauses Lit/Cl |          |
c ===============================================================================
c |       100 |   18230    77593   191975 |    28450      100     70 | 35.837 % |
c |       250 |   18230    77593   191975 |    31295      250     93 | 35.837 % |
c |       475 |   18230    77593   191975 |    34425      475     82 | 35.837 % |
c |       812 |   18230    77593   191975 |    37867      812     95 | 35.837 % |
c |      1318 |   18230    77593   191975 |    41654     1318    129 | 35.837 % |
c ===============================================================================
c restarts              : 9
c conflicts             : 1368           (6333 /sec)
c decisions             : 6098           (0.00 % random) (28230 /sec)
c propagations          : 1580646        (7317365 /sec)
c conflict literals     : 176954         (15.65 % deleted)
d RESTARTS             9
d FAILURES             1368         
d NODES                6098         
d BACKTRACKS           6098         
d PROPAGATIONS         1580646      
d NOGOODSIZE           129.35 
d MEMORY               14.00 
d TIME                 0.216013 

s SATISFIABLE
